# Solution for model problemadamarinha
# Objective value = 590685
XCB[0,0] 200
XCB[0,1] 800
XCB[0,2] 0
XCB[1,0] 0
XCB[1,1] 0
XCB[1,2] 600
XCB[2,0] 600
XCB[2,1] 0
XCB[2,2] 100
Q_Treinada_Por_Base[0] 800
Q_Treinada_Por_Base[1] 800
Q_Treinada_Por_Base[2] 700
Rota_NP[0,0,0] 0
Rota_NP[0,0,1] 0
Rota_NP[0,0,2] 0
Rota_NP[0,0,3] 0
Rota_NP[0,0,4] 0
Rota_NP[0,0,5] 0
Rota_NP[0,0,6] 0
Rota_NP[0,1,0] 0
Rota_NP[0,1,1] 0
Rota_NP[0,1,2] 0
Rota_NP[0,1,3] 0
Rota_NP[0,1,4] 0
Rota_NP[0,1,5] 0
Rota_NP[0,1,6] 0
Rota_NP[0,2,0] 0
Rota_NP[0,2,1] 0
Rota_NP[0,2,2] 0
Rota_NP[0,2,3] 0
Rota_NP[0,2,4] 0
Rota_NP[0,2,5] 0
Rota_NP[0,2,6] 0
Rota_NP[0,3,0] 0
Rota_NP[0,3,1] 0
Rota_NP[0,3,2] 0
Rota_NP[0,3,3] 0
Rota_NP[0,3,4] 0
Rota_NP[0,3,5] 0
Rota_NP[0,3,6] 0
Rota_NP[1,0,0] 0
Rota_NP[1,0,1] 0
Rota_NP[1,0,2] 0
Rota_NP[1,0,3] 0
Rota_NP[1,0,4] 0
Rota_NP[1,0,5] 0
Rota_NP[1,0,6] 0
Rota_NP[1,1,0] 0
Rota_NP[1,1,1] 0
Rota_NP[1,1,2] 0
Rota_NP[1,1,3] 0
Rota_NP[1,1,4] 0
Rota_NP[1,1,5] 0
Rota_NP[1,1,6] 0
Rota_NP[1,2,0] 1
Rota_NP[1,2,1] 1
Rota_NP[1,2,2] 0
Rota_NP[1,2,3] 0
Rota_NP[1,2,4] 1
Rota_NP[1,2,5] 0
Rota_NP[1,2,6] 0
Rota_NP[1,3,0] 0
Rota_NP[1,3,1] 0
Rota_NP[1,3,2] 0
Rota_NP[1,3,3] 0
Rota_NP[1,3,4] 0
Rota_NP[1,3,5] 0
Rota_NP[1,3,6] 0
Rota_NP[2,0,0] 0
Rota_NP[2,0,1] 0
Rota_NP[2,0,2] 0
Rota_NP[2,0,3] 0
Rota_NP[2,0,4] 0
Rota_NP[2,0,5] 0
Rota_NP[2,0,6] 0
Rota_NP[2,1,0] 0
Rota_NP[2,1,1] 0
Rota_NP[2,1,2] 0
Rota_NP[2,1,3] 0
Rota_NP[2,1,4] 0
Rota_NP[2,1,5] 0
Rota_NP[2,1,6] 0
Rota_NP[2,2,0] 0
Rota_NP[2,2,1] 0
Rota_NP[2,2,2] 0
Rota_NP[2,2,3] 0
Rota_NP[2,2,4] 0
Rota_NP[2,2,5] 0
Rota_NP[2,2,6] 0
Rota_NP[2,3,0] 0
Rota_NP[2,3,1] 0
Rota_NP[2,3,2] 0
Rota_NP[2,3,3] 0
Rota_NP[2,3,4] 0
Rota_NP[2,3,5] 0
Rota_NP[2,3,6] 0
Rota_NP[3,0,0] 0
Rota_NP[3,0,1] 0
Rota_NP[3,0,2] 0
Rota_NP[3,0,3] 0
Rota_NP[3,0,4] 0
Rota_NP[3,0,5] 0
Rota_NP[3,0,6] 0
Rota_NP[3,1,0] 0
Rota_NP[3,1,1] 0
Rota_NP[3,1,2] 0
Rota_NP[3,1,3] 0
Rota_NP[3,1,4] 0
Rota_NP[3,1,5] 0
Rota_NP[3,1,6] 0
Rota_NP[3,2,0] 0
Rota_NP[3,2,1] 0
Rota_NP[3,2,2] 0
Rota_NP[3,2,3] 0
Rota_NP[3,2,4] 0
Rota_NP[3,2,5] 0
Rota_NP[3,2,6] 0
Rota_NP[3,3,0] 0
Rota_NP[3,3,1] 0
Rota_NP[3,3,2] 0
Rota_NP[3,3,3] 0
Rota_NP[3,3,4] 0
Rota_NP[3,3,5] 0
Rota_NP[3,3,6] 0
Rota_NG[0,0,0] 0
Rota_NG[0,0,1] 0
Rota_NG[0,0,2] 0
Rota_NG[0,0,3] 0
Rota_NG[0,0,4] 0
Rota_NG[0,1,0] 0
Rota_NG[0,1,1] 1
Rota_NG[0,1,2] 0
Rota_NG[0,1,3] 0
Rota_NG[0,1,4] 1
Rota_NG[0,2,0] 0
Rota_NG[0,2,1] 0
Rota_NG[0,2,2] 0
Rota_NG[0,2,3] 0
Rota_NG[0,2,4] 0
Rota_NG[0,3,0] 0
Rota_NG[0,3,1] 0
Rota_NG[0,3,2] 0
Rota_NG[0,3,3] 0
Rota_NG[0,3,4] 0
Rota_NG[1,0,0] 0
Rota_NG[1,0,1] 0
Rota_NG[1,0,2] 0
Rota_NG[1,0,3] 0
Rota_NG[1,0,4] 0
Rota_NG[1,1,0] 0
Rota_NG[1,1,1] 0
Rota_NG[1,1,2] 0
Rota_NG[1,1,3] 0
Rota_NG[1,1,4] 0
Rota_NG[1,2,0] 0
Rota_NG[1,2,1] 0
Rota_NG[1,2,2] 0
Rota_NG[1,2,3] 1
Rota_NG[1,2,4] 0
Rota_NG[1,3,0] 1
Rota_NG[1,3,1] 0
Rota_NG[1,3,2] 1
Rota_NG[1,3,3] 1
Rota_NG[1,3,4] 1
Rota_NG[2,0,0] 0
Rota_NG[2,0,1] 0
Rota_NG[2,0,2] 0
Rota_NG[2,0,3] 0
Rota_NG[2,0,4] 0
Rota_NG[2,1,0] 0
Rota_NG[2,1,1] 0
Rota_NG[2,1,2] 0
Rota_NG[2,1,3] 0
Rota_NG[2,1,4] 0
Rota_NG[2,2,0] 0
Rota_NG[2,2,1] 0
Rota_NG[2,2,2] 0
Rota_NG[2,2,3] 0
Rota_NG[2,2,4] 0
Rota_NG[2,3,0] 0
Rota_NG[2,3,1] 0
Rota_NG[2,3,2] 0
Rota_NG[2,3,3] 0
Rota_NG[2,3,4] 0
Rota_NG[3,0,0] 0
Rota_NG[3,0,1] 0
Rota_NG[3,0,2] 0
Rota_NG[3,0,3] 0
Rota_NG[3,0,4] 0
Rota_NG[3,1,0] 0
Rota_NG[3,1,1] 0
Rota_NG[3,1,2] 0
Rota_NG[3,1,3] 0
Rota_NG[3,1,4] 0
Rota_NG[3,2,0] 0
Rota_NG[3,2,1] 0
Rota_NG[3,2,2] 0
Rota_NG[3,2,3] 0
Rota_NG[3,2,4] 0
Rota_NG[3,3,0] 0
Rota_NG[3,3,1] 0
Rota_NG[3,3,2] 0
Rota_NG[3,3,3] 0
Rota_NG[3,3,4] 0
QTD_NP[0,0,0] 0
QTD_NP[0,0,1] 0
QTD_NP[0,0,2] 0
QTD_NP[0,0,3] 0
QTD_NP[0,0,4] 0
QTD_NP[0,0,5] 0
QTD_NP[0,0,6] 0
QTD_NP[0,1,0] 0
QTD_NP[0,1,1] 0
QTD_NP[0,1,2] 0
QTD_NP[0,1,3] 0
QTD_NP[0,1,4] 0
QTD_NP[0,1,5] 0
QTD_NP[0,1,6] 0
QTD_NP[0,2,0] 0
QTD_NP[0,2,1] 0
QTD_NP[0,2,2] 0
QTD_NP[0,2,3] 0
QTD_NP[0,2,4] 0
QTD_NP[0,2,5] 0
QTD_NP[0,2,6] 0
QTD_NP[0,3,0] 0
QTD_NP[0,3,1] 0
QTD_NP[0,3,2] 0
QTD_NP[0,3,3] 0
QTD_NP[0,3,4] 0
QTD_NP[0,3,5] 0
QTD_NP[0,3,6] 0
QTD_NP[1,0,0] 0
QTD_NP[1,0,1] 0
QTD_NP[1,0,2] 0
QTD_NP[1,0,3] 0
QTD_NP[1,0,4] 0
QTD_NP[1,0,5] 0
QTD_NP[1,0,6] 0
QTD_NP[1,1,0] 0
QTD_NP[1,1,1] 0
QTD_NP[1,1,2] 0
QTD_NP[1,1,3] 0
QTD_NP[1,1,4] 0
QTD_NP[1,1,5] 0
QTD_NP[1,1,6] 0
QTD_NP[1,2,0] 200
QTD_NP[1,2,1] 0
QTD_NP[1,2,2] 0
QTD_NP[1,2,3] 0
QTD_NP[1,2,4] 100
QTD_NP[1,2,5] 0
QTD_NP[1,2,6] 0
QTD_NP[1,3,0] 0
QTD_NP[1,3,1] 0
QTD_NP[1,3,2] 0
QTD_NP[1,3,3] 0
QTD_NP[1,3,4] 0
QTD_NP[1,3,5] 0
QTD_NP[1,3,6] 0
QTD_NP[2,0,0] 0
QTD_NP[2,0,1] 0
QTD_NP[2,0,2] 0
QTD_NP[2,0,3] 0
QTD_NP[2,0,4] 0
QTD_NP[2,0,5] 0
QTD_NP[2,0,6] 0
QTD_NP[2,1,0] 0
QTD_NP[2,1,1] 0
QTD_NP[2,1,2] 0
QTD_NP[2,1,3] 0
QTD_NP[2,1,4] 0
QTD_NP[2,1,5] 0
QTD_NP[2,1,6] 0
QTD_NP[2,2,0] 0
QTD_NP[2,2,1] 0
QTD_NP[2,2,2] 0
QTD_NP[2,2,3] 0
QTD_NP[2,2,4] 0
QTD_NP[2,2,5] 0
QTD_NP[2,2,6] 0
QTD_NP[2,3,0] 0
QTD_NP[2,3,1] 0
QTD_NP[2,3,2] 0
QTD_NP[2,3,3] 0
QTD_NP[2,3,4] 0
QTD_NP[2,3,5] 0
QTD_NP[2,3,6] 0
QTD_NP[3,0,0] 0
QTD_NP[3,0,1] 0
QTD_NP[3,0,2] 0
QTD_NP[3,0,3] 0
QTD_NP[3,0,4] 0
QTD_NP[3,0,5] 0
QTD_NP[3,0,6] 0
QTD_NP[3,1,0] 0
QTD_NP[3,1,1] 0
QTD_NP[3,1,2] 0
QTD_NP[3,1,3] 0
QTD_NP[3,1,4] 0
QTD_NP[3,1,5] 0
QTD_NP[3,1,6] 0
QTD_NP[3,2,0] 0
QTD_NP[3,2,1] 0
QTD_NP[3,2,2] 0
QTD_NP[3,2,3] 0
QTD_NP[3,2,4] 0
QTD_NP[3,2,5] 0
QTD_NP[3,2,6] 0
QTD_NP[3,3,0] 0
QTD_NP[3,3,1] 0
QTD_NP[3,3,2] 0
QTD_NP[3,3,3] 0
QTD_NP[3,3,4] 0
QTD_NP[3,3,5] 0
QTD_NP[3,3,6] 0
QTD_NG[0,0,0] 0
QTD_NG[0,0,1] 0
QTD_NG[0,0,2] 0
QTD_NG[0,0,3] 0
QTD_NG[0,0,4] 0
QTD_NG[0,1,0] 0
QTD_NG[0,1,1] 500
QTD_NG[0,1,2] 0
QTD_NG[0,1,3] 0
QTD_NG[0,1,4] 300
QTD_NG[0,2,0] 0
QTD_NG[0,2,1] 0
QTD_NG[0,2,2] 0
QTD_NG[0,2,3] 0
QTD_NG[0,2,4] 0
QTD_NG[0,3,0] 0
QTD_NG[0,3,1] 0
QTD_NG[0,3,2] 0
QTD_NG[0,3,3] 0
QTD_NG[0,3,4] 0
QTD_NG[1,0,0] 0
QTD_NG[1,0,1] 0
QTD_NG[1,0,2] 0
QTD_NG[1,0,3] 0
QTD_NG[1,0,4] 0
QTD_NG[1,1,0] 0
QTD_NG[1,1,1] 0
QTD_NG[1,1,2] 0
QTD_NG[1,1,3] 0
QTD_NG[1,1,4] 0
QTD_NG[1,2,0] 0
QTD_NG[1,2,1] 0
QTD_NG[1,2,2] 0
QTD_NG[1,2,3] 500
QTD_NG[1,2,4] 0
QTD_NG[1,3,0] 500
QTD_NG[1,3,1] 0
QTD_NG[1,3,2] 0
QTD_NG[1,3,3] 0
QTD_NG[1,3,4] 200
QTD_NG[2,0,0] 0
QTD_NG[2,0,1] 0
QTD_NG[2,0,2] 0
QTD_NG[2,0,3] 0
QTD_NG[2,0,4] 0
QTD_NG[2,1,0] 0
QTD_NG[2,1,1] 0
QTD_NG[2,1,2] 0
QTD_NG[2,1,3] 0
QTD_NG[2,1,4] 0
QTD_NG[2,2,0] 0
QTD_NG[2,2,1] 0
QTD_NG[2,2,2] 0
QTD_NG[2,2,3] 0
QTD_NG[2,2,4] 0
QTD_NG[2,3,0] 0
QTD_NG[2,3,1] 0
QTD_NG[2,3,2] 0
QTD_NG[2,3,3] 0
QTD_NG[2,3,4] 0
QTD_NG[3,0,0] 0
QTD_NG[3,0,1] 0
QTD_NG[3,0,2] 0
QTD_NG[3,0,3] 0
QTD_NG[3,0,4] 0
QTD_NG[3,1,0] 0
QTD_NG[3,1,1] 0
QTD_NG[3,1,2] 0
QTD_NG[3,1,3] 0
QTD_NG[3,1,4] 0
QTD_NG[3,2,0] 0
QTD_NG[3,2,1] 0
QTD_NG[3,2,2] 0
QTD_NG[3,2,3] 0
QTD_NG[3,2,4] 0
QTD_NG[3,3,0] 0
QTD_NG[3,3,1] 0
QTD_NG[3,3,2] 0
QTD_NG[3,3,3] 0
QTD_NG[3,3,4] 0
QTD_transp_NP[0] 200
QTD_transp_NP[1] 0
QTD_transp_NP[2] 0
QTD_transp_NP[3] 0
QTD_transp_NP[4] 100
QTD_transp_NP[5] 0
QTD_transp_NP[6] 0
QTD_transp_NG[0] 500
QTD_transp_NG[1] 500
QTD_transp_NG[2] 0
QTD_transp_NG[3] 500
QTD_transp_NG[4] 500
QTD_transp_por_base_NP[0] 0
QTD_transp_por_base_NP[1] 300
QTD_transp_por_base_NP[2] 0
QTD_transp_por_base_NG[0] 800
QTD_transp_por_base_NG[1] 500
QTD_transp_por_base_NG[2] 700
Distancia_rota_NP[0] 0
Distancia_rota_NP[1] 515
Distancia_rota_NP[2] 0
Distancia_rota_NP[3] 0
Distancia_rota_NP[4] 0
Distancia_rota_NP[5] 0
Distancia_rota_NP[6] 0
Distancia_rota_NG[0] 370
Distancia_rota_NG[1] 515
Distancia_rota_NG[2] 0
Distancia_rota_NG[3] 0
Distancia_rota_NG[4] 0
Distancia_rota_NG[5] 1280
Distancia_rota_NG[6] 540
NP_utilizado[0] 1
NP_utilizado[1] 0
NP_utilizado[2] 0
NP_utilizado[3] 0
NP_utilizado[4] 1
NP_utilizado[5] 0
NP_utilizado[6] 0
NG_utilizado[0] 1
NG_utilizado[1] 1
NG_utilizado[2] 0
NG_utilizado[3] 1
NG_utilizado[4] 1
